ilp_joint_2/output/boiling_ilp.lp
Maximize
  9.61984e-05 Z_15_1_0 + 0.0541816796221355 Z_15_1_1
   + 0.4078667387207354 Z_15_1_2 + 0.0133807579738112 Z_15_1_3
   + 0.00491499388275241 Z_42_1_0 + 0.0350746879152128 Z_42_1_1
   + 0.00428240175089961 Z_42_1_2 + 0.3134874358267014 Z_42_1_3
   + 0.00929403862889605 Z_44_1_0 + 0.00236231324277014 Z_44_1_1
   + 0.0105845662298412 Z_44_1_2 + 0.3852516869569336 Z_44_1_3
   + 3.9258768032340852e-04 Z_47_1_0 + 0.00160695385565279 Z_47_1_1
   + 0.4752574014288029 Z_47_1_2 + 0.0118481496253776 Z_47_1_3
   + 1.7213754296846462e-04 Z_93_1_0 + 0.1057479363357088 Z_93_1_1
   + 0.3410379986791131 Z_93_1_2 + 0.0239221653904717 Z_93_1_3 + [
   0.00170274308041489 Z_42_1_0 * Z_44_1_0
   + 0.00170274308041489 Z_42_1_0 * Z_93_1_0
   + 0.00170274308041489 Z_42_1_1 * Z_44_1_1
   + 0.00170274308041489 Z_42_1_1 * Z_93_1_1
   + 0.00170274308041489 Z_42_1_2 * Z_44_1_2
   + 0.00170274308041489 Z_42_1_2 * Z_93_1_2
   + 0.00170274308041489 Z_42_1_3 * Z_44_1_3
   + 0.00170274308041489 Z_42_1_3 * Z_93_1_3 + 2 Z_44_1_0 * Z_93_1_0
   + 2 Z_44_1_1 * Z_93_1_1 + 2 Z_44_1_2 * Z_93_1_2 + 2 Z_44_1_3 * Z_93_1_3
   ] / 2 
Subject To
 constraint1_151: Z_15_1_0 + Z_15_1_1 + Z_15_1_2 + Z_15_1_3 <= 1
 constraint1_421: Z_42_1_0 + Z_42_1_1 + Z_42_1_2 + Z_42_1_3 <= 1
 constraint1_441: Z_44_1_0 + Z_44_1_1 + Z_44_1_2 + Z_44_1_3 <= 1
 constraint1_471: Z_47_1_0 + Z_47_1_1 + Z_47_1_2 + Z_47_1_3 <= 1
 constraint1_931: Z_93_1_0 + Z_93_1_1 + Z_93_1_2 + Z_93_1_3 <= 1
 constraint2_150: Z_15_1_0 <= 1
 constraint2_151: Z_15_1_1 <= 1
 constraint2_152: Z_15_1_2 <= 1
 constraint2_153: Z_15_1_3 <= 1
 constraint2_420: Z_42_1_0 <= 1
 constraint2_421: Z_42_1_1 <= 1
 constraint2_422: Z_42_1_2 <= 1
 constraint2_423: Z_42_1_3 <= 1
 constraint2_440: Z_44_1_0 <= 1
 constraint2_441: Z_44_1_1 <= 1
 constraint2_442: Z_44_1_2 <= 1
 constraint2_443: Z_44_1_3 <= 1
 constraint2_470: Z_47_1_0 <= 1
 constraint2_471: Z_47_1_1 <= 1
 constraint2_472: Z_47_1_2 <= 1
 constraint2_473: Z_47_1_3 <= 1
 constraint2_930: Z_93_1_0 <= 1
 constraint2_931: Z_93_1_1 <= 1
 constraint2_932: Z_93_1_2 <= 1
 constraint2_933: Z_93_1_3 <= 1
Bounds
Binaries
 Z_15_1_0 Z_15_1_1 Z_15_1_2 Z_15_1_3 Z_42_1_0 Z_42_1_1 Z_42_1_2 Z_42_1_3
 Z_44_1_0 Z_44_1_1 Z_44_1_2 Z_44_1_3 Z_47_1_0 Z_47_1_1 Z_47_1_2 Z_47_1_3
 Z_93_1_0 Z_93_1_1 Z_93_1_2 Z_93_1_3
End
