ilp_joint_2/output/boiling_ilp.mps
NAME boiling_srl_ilp
* Max problem is converted into Min one
ROWS
 N  OBJ
 L  constraint1_151
 L  constraint1_421
 L  constraint1_441
 L  constraint1_471
 L  constraint1_931
 L  constraint2_150
 L  constraint2_151
 L  constraint2_152
 L  constraint2_153
 L  constraint2_420
 L  constraint2_421
 L  constraint2_422
 L  constraint2_423
 L  constraint2_440
 L  constraint2_441
 L  constraint2_442
 L  constraint2_443
 L  constraint2_470
 L  constraint2_471
 L  constraint2_472
 L  constraint2_473
 L  constraint2_930
 L  constraint2_931
 L  constraint2_932
 L  constraint2_933
COLUMNS
    MARKER    'MARKER'                 'INTORG'
    Z_15_1_0  OBJ       -9.6198392414093004e-05
    Z_15_1_0  constraint1_151  1
    Z_15_1_0  constraint2_150  1
    Z_15_1_1  OBJ       -5.4181679622135548e-02
    Z_15_1_1  constraint1_151  1
    Z_15_1_1  constraint2_151  1
    Z_15_1_2  OBJ       -4.0786673872073537e-01
    Z_15_1_2  constraint1_151  1
    Z_15_1_2  constraint2_152  1
    Z_15_1_3  OBJ       -1.3380757973811240e-02
    Z_15_1_3  constraint1_151  1
    Z_15_1_3  constraint2_153  1
    Z_42_1_0  OBJ       -4.9149938827524053e-03
    Z_42_1_0  constraint1_421  1
    Z_42_1_0  constraint2_420  1
    Z_42_1_1  OBJ       -3.5074687915212788e-02
    Z_42_1_1  constraint1_421  1
    Z_42_1_1  constraint2_421  1
    Z_42_1_2  OBJ       -4.2824017508996115e-03
    Z_42_1_2  constraint1_421  1
    Z_42_1_2  constraint2_422  1
    Z_42_1_3  OBJ       -3.1348743582670141e-01
    Z_42_1_3  constraint1_421  1
    Z_42_1_3  constraint2_423  1
    Z_44_1_0  OBJ       -9.2940386288960508e-03
    Z_44_1_0  constraint1_441  1
    Z_44_1_0  constraint2_440  1
    Z_44_1_1  OBJ       -2.3623132427701421e-03
    Z_44_1_1  constraint1_441  1
    Z_44_1_1  constraint2_441  1
    Z_44_1_2  OBJ       -1.0584566229841219e-02
    Z_44_1_2  constraint1_441  1
    Z_44_1_2  constraint2_442  1
    Z_44_1_3  OBJ       -3.8525168695693363e-01
    Z_44_1_3  constraint1_441  1
    Z_44_1_3  constraint2_443  1
    Z_47_1_0  OBJ       -3.9258768032340852e-04
    Z_47_1_0  constraint1_471  1
    Z_47_1_0  constraint2_470  1
    Z_47_1_1  OBJ       -1.6069538556527929e-03
    Z_47_1_1  constraint1_471  1
    Z_47_1_1  constraint2_471  1
    Z_47_1_2  OBJ       -4.7525740142880291e-01
    Z_47_1_2  constraint1_471  1
    Z_47_1_2  constraint2_472  1
    Z_47_1_3  OBJ       -1.1848149625377571e-02
    Z_47_1_3  constraint1_471  1
    Z_47_1_3  constraint2_473  1
    Z_93_1_0  OBJ       -1.7213754296846462e-04
    Z_93_1_0  constraint1_931  1
    Z_93_1_0  constraint2_930  1
    Z_93_1_1  OBJ       -1.0574793633570884e-01
    Z_93_1_1  constraint1_931  1
    Z_93_1_1  constraint2_931  1
    Z_93_1_2  OBJ       -3.4103799867911305e-01
    Z_93_1_2  constraint1_931  1
    Z_93_1_2  constraint2_932  1
    Z_93_1_3  OBJ       -2.3922165390471664e-02
    Z_93_1_3  constraint1_931  1
    Z_93_1_3  constraint2_933  1
    MARKER    'MARKER'                 'INTEND'
RHS
    RHS1      constraint1_151  1
    RHS1      constraint1_421  1
    RHS1      constraint1_441  1
    RHS1      constraint1_471  1
    RHS1      constraint1_931  1
    RHS1      constraint2_150  1
    RHS1      constraint2_151  1
    RHS1      constraint2_152  1
    RHS1      constraint2_153  1
    RHS1      constraint2_420  1
    RHS1      constraint2_421  1
    RHS1      constraint2_422  1
    RHS1      constraint2_423  1
    RHS1      constraint2_440  1
    RHS1      constraint2_441  1
    RHS1      constraint2_442  1
    RHS1      constraint2_443  1
    RHS1      constraint2_470  1
    RHS1      constraint2_471  1
    RHS1      constraint2_472  1
    RHS1      constraint2_473  1
    RHS1      constraint2_930  1
    RHS1      constraint2_931  1
    RHS1      constraint2_932  1
    RHS1      constraint2_933  1
BOUNDS
 UP BND1      Z_15_1_0  1
 UP BND1      Z_15_1_1  1
 UP BND1      Z_15_1_2  1
 UP BND1      Z_15_1_3  1
 UP BND1      Z_42_1_0  1
 UP BND1      Z_42_1_1  1
 UP BND1      Z_42_1_2  1
 UP BND1      Z_42_1_3  1
 UP BND1      Z_44_1_0  1
 UP BND1      Z_44_1_1  1
 UP BND1      Z_44_1_2  1
 UP BND1      Z_44_1_3  1
 UP BND1      Z_47_1_0  1
 UP BND1      Z_47_1_1  1
 UP BND1      Z_47_1_2  1
 UP BND1      Z_47_1_3  1
 UP BND1      Z_93_1_0  1
 UP BND1      Z_93_1_1  1
 UP BND1      Z_93_1_2  1
 UP BND1      Z_93_1_3  1
QUADOBJ
    Z_42_1_0  Z_44_1_0  -8.5137154020744276e-04
    Z_42_1_0  Z_93_1_0  -8.5137154020744276e-04
    Z_42_1_1  Z_44_1_1  -8.5137154020744276e-04
    Z_42_1_1  Z_93_1_1  -8.5137154020744276e-04
    Z_42_1_2  Z_44_1_2  -8.5137154020744276e-04
    Z_42_1_2  Z_93_1_2  -8.5137154020744276e-04
    Z_42_1_3  Z_44_1_3  -8.5137154020744276e-04
    Z_42_1_3  Z_93_1_3  -8.5137154020744276e-04
    Z_44_1_0  Z_93_1_0  -1
    Z_44_1_1  Z_93_1_1  -1
    Z_44_1_2  Z_93_1_2  -1
    Z_44_1_3  Z_93_1_3  -1
ENDATA
