ilp_joint_2/output/boiling_ilp.sol
# Solution for model boiling_srl_ilp
# Objective value = 2.6074881714040599e+00
Z_15_1_0 0
Z_15_1_1 0
Z_15_1_2 1
Z_15_1_3 0
Z_42_1_0 0
Z_42_1_1 0
Z_42_1_2 0
Z_42_1_3 1
Z_44_1_0 0
Z_44_1_1 0
Z_44_1_2 0
Z_44_1_3 1
Z_47_1_0 0
Z_47_1_1 0
Z_47_1_2 1
Z_47_1_3 0
Z_93_1_0 0
Z_93_1_1 0
Z_93_1_2 0
Z_93_1_3 1
